experiments/extractfix/jasper/CVE-2016-8691/spec.smt2
(declare-fun obs () (Array (_ BitVec 32) (_ BitVec 8) ) )
(assert (= false (bvsle (concat  (select  obs (_ bv3 32) ) (concat  (select  obs (_ bv2 32) ) (concat  (select  obs (_ bv1 32) ) (select  obs (_ bv0 32) ) ) ) ) (_ bv0 32)) ))
